750
[157,164,166,167,173,185,190,191,199,204,206,209,227,231,240,242,257,259,262,283,288,291,294,296,308,311,313,316,320,346,352,362,374,383,399,410,435,451,452,458,459,463,465,472,473,474,489,499]
[1,1,1,1,1,1,1,1,1,1,1,1,1,1,1,1,1,1,1,1,1,1,1,1,1,1,1,1,1,1,1,1,1,1,1,1,1,1,1,1,1,2,1,1,2,1,1,1]
